--------------------------------------------------
benchmarks_SAT/INST_49x49/25/inst49x49_25_0.cnf : 1000010 ms.
--------------------------------------------------
benchmarks_SAT/INST_49x49/25/inst49x49_25_10.cnf : 1000013 ms.
--------------------------------------------------
s SATISFIABLE
benchmarks_SAT/INST_49x49/25/inst49x49_25_11.cnf : 296440 ms.
--------------------------------------------------
s SATISFIABLE
benchmarks_SAT/INST_49x49/25/inst49x49_25_12.cnf : 107951 ms.
--------------------------------------------------
s SATISFIABLE
benchmarks_SAT/INST_49x49/25/inst49x49_25_13.cnf : 930622 ms.
--------------------------------------------------
s SATISFIABLE
benchmarks_SAT/INST_49x49/25/inst49x49_25_14.cnf : 244078 ms.
--------------------------------------------------
benchmarks_SAT/INST_49x49/25/inst49x49_25_15.cnf : 1000017 ms.
--------------------------------------------------
s SATISFIABLE
benchmarks_SAT/INST_49x49/25/inst49x49_25_16.cnf : 39751 ms.
--------------------------------------------------
benchmarks_SAT/INST_49x49/25/inst49x49_25_17.cnf : 1000016 ms.
--------------------------------------------------
s SATISFIABLE
benchmarks_SAT/INST_49x49/25/inst49x49_25_18.cnf : 380667 ms.
--------------------------------------------------
benchmarks_SAT/INST_49x49/25/inst49x49_25_19.cnf : 1000020 ms.
--------------------------------------------------
benchmarks_SAT/INST_49x49/25/inst49x49_25_1.cnf : 1000013 ms.
--------------------------------------------------
s SATISFIABLE
benchmarks_SAT/INST_49x49/25/inst49x49_25_20.cnf : 342925 ms.
--------------------------------------------------
s SATISFIABLE
benchmarks_SAT/INST_49x49/25/inst49x49_25_21.cnf : 139193 ms.
--------------------------------------------------
s SATISFIABLE
benchmarks_SAT/INST_49x49/25/inst49x49_25_22.cnf : 503908 ms.
--------------------------------------------------
s SATISFIABLE
benchmarks_SAT/INST_49x49/25/inst49x49_25_23.cnf : 415425 ms.
--------------------------------------------------
s SATISFIABLE
benchmarks_SAT/INST_49x49/25/inst49x49_25_24.cnf : 648351 ms.
--------------------------------------------------
s SATISFIABLE
benchmarks_SAT/INST_49x49/25/inst49x49_25_25.cnf : 182458 ms.
--------------------------------------------------
s SATISFIABLE
benchmarks_SAT/INST_49x49/25/inst49x49_25_26.cnf : 174865 ms.
--------------------------------------------------
benchmarks_SAT/INST_49x49/25/inst49x49_25_27.cnf : 1000018 ms.
--------------------------------------------------
s SATISFIABLE
benchmarks_SAT/INST_49x49/25/inst49x49_25_28.cnf : 88724 ms.
--------------------------------------------------
s SATISFIABLE
benchmarks_SAT/INST_49x49/25/inst49x49_25_29.cnf : 318203 ms.
--------------------------------------------------
s SATISFIABLE
benchmarks_SAT/INST_49x49/25/inst49x49_25_2.cnf : 231385 ms.
--------------------------------------------------
s SATISFIABLE
benchmarks_SAT/INST_49x49/25/inst49x49_25_30.cnf : 406472 ms.
--------------------------------------------------
s SATISFIABLE
benchmarks_SAT/INST_49x49/25/inst49x49_25_31.cnf : 319120 ms.
--------------------------------------------------
s SATISFIABLE
benchmarks_SAT/INST_49x49/25/inst49x49_25_32.cnf : 412396 ms.
--------------------------------------------------
benchmarks_SAT/INST_49x49/25/inst49x49_25_33.cnf : 1000018 ms.
--------------------------------------------------
s SATISFIABLE
benchmarks_SAT/INST_49x49/25/inst49x49_25_34.cnf : 174860 ms.
--------------------------------------------------
s SATISFIABLE
benchmarks_SAT/INST_49x49/25/inst49x49_25_35.cnf : 130292 ms.
--------------------------------------------------
benchmarks_SAT/INST_49x49/25/inst49x49_25_36.cnf : 1000018 ms.
--------------------------------------------------
benchmarks_SAT/INST_49x49/25/inst49x49_25_37.cnf : 1000012 ms.
--------------------------------------------------
benchmarks_SAT/INST_49x49/25/inst49x49_25_38.cnf : 1000012 ms.
--------------------------------------------------
s SATISFIABLE
benchmarks_SAT/INST_49x49/25/inst49x49_25_39.cnf : 173590 ms.
--------------------------------------------------
s SATISFIABLE
benchmarks_SAT/INST_49x49/25/inst49x49_25_3.cnf : 173132 ms.
--------------------------------------------------
benchmarks_SAT/INST_49x49/25/inst49x49_25_40.cnf : 1000020 ms.
--------------------------------------------------
benchmarks_SAT/INST_49x49/25/inst49x49_25_41.cnf : 1000025 ms.
--------------------------------------------------
s SATISFIABLE
benchmarks_SAT/INST_49x49/25/inst49x49_25_42.cnf : 957178 ms.
--------------------------------------------------
s SATISFIABLE
benchmarks_SAT/INST_49x49/25/inst49x49_25_43.cnf : 73819 ms.
--------------------------------------------------
benchmarks_SAT/INST_49x49/25/inst49x49_25_44.cnf : 1000016 ms.
--------------------------------------------------
s SATISFIABLE
benchmarks_SAT/INST_49x49/25/inst49x49_25_45.cnf : 140853 ms.
--------------------------------------------------
s SATISFIABLE
benchmarks_SAT/INST_49x49/25/inst49x49_25_46.cnf : 449873 ms.
--------------------------------------------------
s SATISFIABLE
benchmarks_SAT/INST_49x49/25/inst49x49_25_47.cnf : 173693 ms.
--------------------------------------------------
s SATISFIABLE
benchmarks_SAT/INST_49x49/25/inst49x49_25_48.cnf : 457166 ms.
--------------------------------------------------
s SATISFIABLE
benchmarks_SAT/INST_49x49/25/inst49x49_25_49.cnf : 159317 ms.
--------------------------------------------------
benchmarks_SAT/INST_49x49/25/inst49x49_25_4.cnf : 1000017 ms.
--------------------------------------------------
s SATISFIABLE
benchmarks_SAT/INST_49x49/25/inst49x49_25_50.cnf : 73325 ms.
--------------------------------------------------
benchmarks_SAT/INST_49x49/25/inst49x49_25_51.cnf : 1000012 ms.
--------------------------------------------------
benchmarks_SAT/INST_49x49/25/inst49x49_25_52.cnf : 1000016 ms.
--------------------------------------------------
benchmarks_SAT/INST_49x49/25/inst49x49_25_53.cnf : 1000011 ms.
--------------------------------------------------
s SATISFIABLE
benchmarks_SAT/INST_49x49/25/inst49x49_25_54.cnf : 181934 ms.
--------------------------------------------------
s SATISFIABLE
benchmarks_SAT/INST_49x49/25/inst49x49_25_55.cnf : 228602 ms.
--------------------------------------------------
s SATISFIABLE
benchmarks_SAT/INST_49x49/25/inst49x49_25_56.cnf : 269259 ms.
--------------------------------------------------
s SATISFIABLE
benchmarks_SAT/INST_49x49/25/inst49x49_25_57.cnf : 382726 ms.
--------------------------------------------------
s SATISFIABLE
benchmarks_SAT/INST_49x49/25/inst49x49_25_58.cnf : 520455 ms.
--------------------------------------------------
s SATISFIABLE
benchmarks_SAT/INST_49x49/25/inst49x49_25_59.cnf : 459610 ms.
--------------------------------------------------
benchmarks_SAT/INST_49x49/25/inst49x49_25_5.cnf : 1000016 ms.
--------------------------------------------------
s SATISFIABLE
benchmarks_SAT/INST_49x49/25/inst49x49_25_60.cnf : 79024 ms.
--------------------------------------------------
s SATISFIABLE
benchmarks_SAT/INST_49x49/25/inst49x49_25_61.cnf : 187532 ms.
--------------------------------------------------
benchmarks_SAT/INST_49x49/25/inst49x49_25_62.cnf : 1000012 ms.
--------------------------------------------------
benchmarks_SAT/INST_49x49/25/inst49x49_25_63.cnf : 1000014 ms.
--------------------------------------------------
s SATISFIABLE
benchmarks_SAT/INST_49x49/25/inst49x49_25_64.cnf : 498917 ms.
--------------------------------------------------
s SATISFIABLE
benchmarks_SAT/INST_49x49/25/inst49x49_25_65.cnf : 533155 ms.
--------------------------------------------------
s SATISFIABLE
benchmarks_SAT/INST_49x49/25/inst49x49_25_66.cnf : 163105 ms.
--------------------------------------------------
s SATISFIABLE
benchmarks_SAT/INST_49x49/25/inst49x49_25_67.cnf : 238928 ms.
--------------------------------------------------
s SATISFIABLE
benchmarks_SAT/INST_49x49/25/inst49x49_25_68.cnf : 58502 ms.
--------------------------------------------------
s SATISFIABLE
benchmarks_SAT/INST_49x49/25/inst49x49_25_69.cnf : 567894 ms.
--------------------------------------------------
s SATISFIABLE
benchmarks_SAT/INST_49x49/25/inst49x49_25_6.cnf : 756373 ms.
--------------------------------------------------
benchmarks_SAT/INST_49x49/25/inst49x49_25_70.cnf : 1000016 ms.
--------------------------------------------------
benchmarks_SAT/INST_49x49/25/inst49x49_25_71.cnf : 1000015 ms.
--------------------------------------------------
s SATISFIABLE
benchmarks_SAT/INST_49x49/25/inst49x49_25_72.cnf : 153340 ms.
--------------------------------------------------
benchmarks_SAT/INST_49x49/25/inst49x49_25_73.cnf : 1000013 ms.
--------------------------------------------------
s SATISFIABLE
benchmarks_SAT/INST_49x49/25/inst49x49_25_74.cnf : 641096 ms.
--------------------------------------------------
s SATISFIABLE
benchmarks_SAT/INST_49x49/25/inst49x49_25_75.cnf : 237068 ms.
--------------------------------------------------
benchmarks_SAT/INST_49x49/25/inst49x49_25_76.cnf : 1000015 ms.
--------------------------------------------------
s SATISFIABLE
benchmarks_SAT/INST_49x49/25/inst49x49_25_77.cnf : 583667 ms.
--------------------------------------------------
s SATISFIABLE
benchmarks_SAT/INST_49x49/25/inst49x49_25_78.cnf : 73763 ms.
--------------------------------------------------
benchmarks_SAT/INST_49x49/25/inst49x49_25_79.cnf : 1000022 ms.
--------------------------------------------------
benchmarks_SAT/INST_49x49/25/inst49x49_25_7.cnf : 1000035 ms.
--------------------------------------------------
s SATISFIABLE
benchmarks_SAT/INST_49x49/25/inst49x49_25_80.cnf : 53602 ms.
--------------------------------------------------
benchmarks_SAT/INST_49x49/25/inst49x49_25_81.cnf : 1000020 ms.
--------------------------------------------------
benchmarks_SAT/INST_49x49/25/inst49x49_25_82.cnf : 1000016 ms.
--------------------------------------------------
s SATISFIABLE
benchmarks_SAT/INST_49x49/25/inst49x49_25_83.cnf : 321212 ms.
--------------------------------------------------
s SATISFIABLE
benchmarks_SAT/INST_49x49/25/inst49x49_25_84.cnf : 361999 ms.
--------------------------------------------------
s SATISFIABLE
benchmarks_SAT/INST_49x49/25/inst49x49_25_85.cnf : 92467 ms.
--------------------------------------------------
benchmarks_SAT/INST_49x49/25/inst49x49_25_86.cnf : 1000020 ms.
--------------------------------------------------
s SATISFIABLE
benchmarks_SAT/INST_49x49/25/inst49x49_25_87.cnf : 61387 ms.
--------------------------------------------------
s SATISFIABLE
benchmarks_SAT/INST_49x49/25/inst49x49_25_88.cnf : 753703 ms.
--------------------------------------------------
benchmarks_SAT/INST_49x49/25/inst49x49_25_89.cnf : 1000009 ms.
--------------------------------------------------
s SATISFIABLE
benchmarks_SAT/INST_49x49/25/inst49x49_25_8.cnf : 699266 ms.
--------------------------------------------------
s SATISFIABLE
benchmarks_SAT/INST_49x49/25/inst49x49_25_90.cnf : 278180 ms.
--------------------------------------------------
s SATISFIABLE
benchmarks_SAT/INST_49x49/25/inst49x49_25_91.cnf : 98479 ms.
--------------------------------------------------
benchmarks_SAT/INST_49x49/25/inst49x49_25_92.cnf : 1000013 ms.
--------------------------------------------------
s SATISFIABLE
benchmarks_SAT/INST_49x49/25/inst49x49_25_93.cnf : 268866 ms.
--------------------------------------------------
s SATISFIABLE
benchmarks_SAT/INST_49x49/25/inst49x49_25_94.cnf : 285397 ms.
--------------------------------------------------
s SATISFIABLE
benchmarks_SAT/INST_49x49/25/inst49x49_25_95.cnf : 85005 ms.
--------------------------------------------------
s SATISFIABLE
benchmarks_SAT/INST_49x49/25/inst49x49_25_96.cnf : 731928 ms.
--------------------------------------------------
benchmarks_SAT/INST_49x49/25/inst49x49_25_97.cnf : 1000016 ms.
--------------------------------------------------
s SATISFIABLE
benchmarks_SAT/INST_49x49/25/inst49x49_25_98.cnf : 77525 ms.
--------------------------------------------------
s SATISFIABLE
benchmarks_SAT/INST_49x49/25/inst49x49_25_99.cnf : 199040 ms.
--------------------------------------------------
benchmarks_SAT/INST_49x49/25/inst49x49_25_9.cnf : 1000018 ms.
